(set-logic HORN)
(declare-fun state (Int (Array Int Int) (Array Int Int) (Array Int Int) (Array Int Int) Int Int (Array Int Int) (Array Int Int) Int Int Int Int Int Int Int Int Int Int Int Int Int Int Int Int Int Int Int Int Int Int Int Int Int Bool Bool Bool Bool Bool (Array Int Int)) Bool)
(assert (forall ((|A_23| Int) (|B_23| (Array Int Int)) (|C_23| (Array Int Int)) (|D_23| (Array Int Int)) (|E_23| (Array Int Int)) (|F_23| Int) (|G_23| Int) (|H_23| (Array Int Int)) (|I_23| (Array Int Int)) (|J_23| Int) (|K_23| Int) (|L_23| Int) (|M_23| Int) (|N_23| Int) (|O_23| Int) (|P_23| Int) (|Q_23| Int) (|R_23| Int) (|S_23| Int) (|T_23| Int) (|U_23| Int) (|V_23| Int) (|W_23| Int) (|X_23| Int) (|Y_23| Int) (|Z_23| Int) (|A1_23| Int) (|B1_23| Int) (|C1_23| Int) (|D1_23| Int) (|E1_23| Int) (|F1_23| Int) (|G1_23| Int) (|H1_23| Int) (|J1_13| Bool) (|.loc.5| Bool) (|.loc.6| Bool) (|.loc.7| Bool) (|.loc.8| Bool) (|J1_0| (Array Int Int)) (|.x.797| Int) (|.x.795| (Array Int Int)) (|.x.793| Int) (|.x.791| (Array Int Int)) (|.x.787| Int) (|.x.789| (Array Int Int)) (|.x.788| (Array Int Int)) (|I1_23| Bool) (|.x.799| Int) (|.x.800| Int) (|.x.808| Int) (|.x.812| Int) (|.x.814| Int) (|.x.815| Int) (|.x.816| Int) (|.x.817| Int) (|.loc.11| Bool) (|.loc.10| Bool) (|.x.811| Int) (|.x.802| Int) (|.x.813| Int) (|.x.818| Int) (|.loc.9| Bool) (|.x.809| Int) (|.x.807| Int) (|.loc.12| Bool) (|.x.805| Int) (|.x.790| (Array Int Int)) (|.x.810| Int) (|.x.819| Int) (|.x.820| Int) (|.x.804| Int) (|.x.806| Int) (|.x.803| Int) (|.x.798| Int) (|.x.801| Int) (|.x.796| Int) (|.x.792| Int) (|.x.794| (Array Int Int)) (|.xtv.1| (Array Int Int))) (=> (and (and (and (and .loc.5 (not .loc.6)) (not .loc.7)) (not .loc.8)) (and (and (and (and (and (= D_23 E_23) (not J1_13)) (= J_23 K_23)) (= F_23 G_23)) (= H_23 I_23)) (= B_23 C_23))) (state |A_23| |B_23| |C_23| |D_23| |E_23| |F_23| |G_23| |H_23| |I_23| |J_23| |K_23| |L_23| |M_23| |N_23| |O_23| |P_23| |Q_23| |R_23| |S_23| |T_23| |U_23| |V_23| |W_23| |X_23| |Y_23| |Z_23| |A1_23| |B1_23| |C1_23| |D1_23| |E1_23| |F1_23| |G1_23| |H1_23| |J1_13| |.loc.5| |.loc.6| |.loc.7| |.loc.8| |J1_0|))))
(assert (forall ((|A_23| Int) (|B_23| (Array Int Int)) (|C_23| (Array Int Int)) (|D_23| (Array Int Int)) (|E_23| (Array Int Int)) (|F_23| Int) (|G_23| Int) (|H_23| (Array Int Int)) (|I_23| (Array Int Int)) (|J_23| Int) (|K_23| Int) (|L_23| Int) (|M_23| Int) (|N_23| Int) (|O_23| Int) (|P_23| Int) (|Q_23| Int) (|R_23| Int) (|S_23| Int) (|T_23| Int) (|U_23| Int) (|V_23| Int) (|W_23| Int) (|X_23| Int) (|Y_23| Int) (|Z_23| Int) (|A1_23| Int) (|B1_23| Int) (|C1_23| Int) (|D1_23| Int) (|E1_23| Int) (|F1_23| Int) (|G1_23| Int) (|H1_23| Int) (|J1_13| Bool) (|.loc.5| Bool) (|.loc.6| Bool) (|.loc.7| Bool) (|.loc.8| Bool) (|J1_0| (Array Int Int)) (|.x.797| Int) (|.x.795| (Array Int Int)) (|.x.793| Int) (|.x.791| (Array Int Int)) (|.x.787| Int) (|.x.789| (Array Int Int)) (|.x.788| (Array Int Int)) (|I1_23| Bool) (|.x.799| Int) (|.x.800| Int) (|.x.808| Int) (|.x.812| Int) (|.x.814| Int) (|.x.815| Int) (|.x.816| Int) (|.x.817| Int) (|.loc.11| Bool) (|.loc.10| Bool) (|.x.811| Int) (|.x.802| Int) (|.x.813| Int) (|.x.818| Int) (|.loc.9| Bool) (|.x.809| Int) (|.x.807| Int) (|.loc.12| Bool) (|.x.805| Int) (|.x.790| (Array Int Int)) (|.x.810| Int) (|.x.819| Int) (|.x.820| Int) (|.x.804| Int) (|.x.806| Int) (|.x.803| Int) (|.x.798| Int) (|.x.801| Int) (|.x.796| Int) (|.x.792| Int) (|.x.794| (Array Int Int)) (|.xtv.1| (Array Int Int))) (=> (and (state |A_23| |B_23| |C_23| |D_23| |E_23| |F_23| |G_23| |H_23| |I_23| |J_23| |K_23| |L_23| |M_23| |N_23| |O_23| |P_23| |Q_23| |R_23| |S_23| |T_23| |U_23| |V_23| |W_23| |X_23| |Y_23| |Z_23| |A1_23| |B1_23| |C1_23| |D1_23| |E1_23| |F1_23| |G1_23| |H1_23| |J1_13| |.loc.5| |.loc.6| |.loc.7| |.loc.8| |J1_0|) (let ((.def_50 (not .loc.6))) (let ((.def_52 (not .loc.7))) (let ((.def_54 (not .loc.8))) (let ((.def_86 (= B_23 .x.788))) (let ((.def_90 (= M_23 .x.799))) (let ((.def_93 (= N_23 .x.800))) (let ((.def_96 (= V_23 .x.808))) (let ((.def_99 (= Z_23 .x.812))) (let ((.def_102 (= B1_23 .x.814))) (let ((.def_105 (= C1_23 .x.815))) (let ((.def_108 (= D1_23 .x.816))) (let ((.def_111 (= E1_23 .x.817))) (let ((.def_113 (not .loc.5))) (let ((.def_126 (= J1_13 I1_23))) (let ((.def_133 (not .loc.10))) (let ((.def_136 (= P_23 0))) (let ((.def_139 (and .def_93 (and .def_86 .def_90)))) (let ((.def_145 (and .def_111 (and .def_108 (and .def_105 (and .def_102 (and .def_99 (and .def_96 .def_139)))))))) (let ((.def_149 (not .loc.11))) (let ((.def_155 (= Y_23 .x.811))) (let ((.def_157 (= P_23 .x.802))) (let ((.def_160 (= A1_23 .x.813))) (let ((.def_163 (= F1_23 .x.818))) (let ((.def_166 (not .loc.9))) (let ((.def_172 (select D_23 N_23))) (let ((.def_178 (select D_23 V_23))) (let ((.def_183 (<= 100000 W_23))) (let ((.def_203 (= W_23 .x.809))) (let ((.def_205 (= U_23 .x.807))) (let ((.def_214 (and .def_139 .def_157))) (let ((.def_235 (and .def_96 (and .def_205 .def_214)))) (let ((.def_254 (and J1_13 .def_86))) (let ((.def_268 (and .def_163 (and .def_111 (and .def_108 (and .def_105 (and .def_102 (and .def_160 (and .def_99 (and .def_155 (and .def_203 (and .def_96 (and .def_205 (and .def_157 (and .def_93 (and .def_90 .def_254)))))))))))))))) (let ((.def_279 (and .def_203 .def_235))) (let ((.def_287 (and .def_163 (and .def_111 (and .def_108 (and .def_105 (and .def_102 (and .def_160 (and .def_99 (and .def_155 .def_279)))))))))) (let ((.def_308 (not .loc.12))) (let ((.def_313 (and .def_113 (and .loc.7 (and .loc.6 .def_287))))) (let ((.def_320 (<= 100000 S_23))) (let ((.def_321 (or J1_13 .def_320))) (let ((.def_325 (= S_23 .x.805))) (let ((.def_327 (= D_23 .x.790))) (let ((.def_330 (= X_23 .x.810))) (let ((.def_333 (= G1_23 .x.819))) (let ((.def_345 (not .def_320))) (let ((.def_357 (or I1_23 (= (+ S_23 (* (- 1) .x.805)) (- 1))))) (let ((.def_366 (and .def_157 (and .def_93 (and .def_90 (and .def_86 .def_327)))))) (let ((.def_380 (and .def_333 (and .def_163 (and .def_111 (and .def_108 (and .def_105 (and .def_102 (and .def_160 (and .def_99 (and .def_155 (and .def_330 (and .def_203 (and .def_96 (and .def_205 (and .def_325 .def_366)))))))))))))))) (let ((.def_395 (and .def_157 (and .def_93 (and .def_90 (and .def_254 .def_327)))))) (let ((.def_409 (and .def_333 (and .def_163 (and .def_111 (and .def_108 (and .def_105 (and .def_102 (and .def_160 (and .def_99 (and .def_155 (and .def_330 (and .def_203 (and .def_96 (and .def_205 (and .def_325 .def_395)))))))))))))))) (let ((.def_443 (or J1_13 (= .x.805 0)))) (let ((.def_468 (= H1_23 .x.820))) (let ((.def_470 (= R_23 .x.804))) (let ((.def_503 (and .def_366 .def_470))) (let ((.def_555 (<= 100000 O_23))) (let ((.def_600 (store D_23 V_23 (store .def_178 (+ (* 4 O_23) Z_23) L_23)))) (let ((.def_695 (store J1_0 .x.808 1))) (let ((.def_699 (store .def_695 .x.815 1))) (and (and (= K_23 .x.797) (and (= I_23 .x.795) (and (= G_23 .x.793) (and (= E_23 .x.791) (and (= A_23 .x.787) (= C_23 .x.789)))))) (or (and (or (and (or (or (or (or (and (or (or (or (or (or (or (and (or (or (and (or (or (or (and .def_52 (or (and (or (and (or (and (or (and (and (and (and (and (and (and (and (and (and .def_86 I1_23) .def_90) .def_93) .def_96) .def_99) .def_102) .def_105) .def_108) .def_111) .def_113) (and (or J1_13 (and (= .x.788 (store (store (store B_23 V_23 0) C1_23 0) N_23 0)) (= .x.816 0))) (and (and .loc.5 (or I1_23 (= .x.816 .x.817))) .def_126))) (and (and .loc.6 .loc.11) .def_133)) (and (or J1_13 .def_136) (and .def_50 (and (and .def_126 (and .loc.10 (and .loc.5 .def_145))) .def_149)))) (and (and (and (and .def_155 .def_157) .def_160) .def_163) .def_166)) (and (or J1_13 (and (= .x.811 (select .def_172 (+ (* 4 W_23) B1_23))) (and (= .x.802 .x.818) (and (= .x.813 (select .def_178 (+ (* 4 W_23) Z_23))) (and (not .def_183) (= .x.818 (ite (= .x.811 .x.813) 1 0))))))) (and .def_50 (and .def_149 (and .def_126 (and .def_133 (and .loc.9 (and .def_113 .def_145)))))))) (and .loc.8 (and .def_203 .def_205))) (and (or I1_23 (= (+ W_23 (* (- 1) .x.809)) (- 1))) (and .def_54 (and .def_50 (and .def_149 (and .def_126 (and .def_133 (and .def_166 (and .def_113 (and .def_163 (and .def_111 (and .def_108 (and .def_105 (and .def_102 (and .def_99 (and .def_96 .def_214))))))))))))))))) (and (or J1_13 (= .x.809 0)) (and .def_54 (and .def_149 (and .def_126 (and .def_133 (and .def_166 (and .loc.7 (and .loc.6 (and .loc.5 (and .def_163 (and .def_111 (and .def_108 (and .def_105 (and .def_102 (and .def_160 (and .def_99 (and .def_155 .def_235)))))))))))))))))) (and .def_50 (and .def_149 (and .def_126 (and .loc.10 (and .loc.9 (and .def_52 (and .def_113 (and .loc.8 .def_268))))))))) (and (or J1_13 .def_183) (and .def_50 (and .def_149 (and .def_126 (and .loc.10 (and .loc.9 (and .def_52 (and .def_113 (and .loc.8 .def_287)))))))))) .loc.12) (and (and .def_54 (and .def_126 (and .loc.11 (and .loc.10 (and .loc.9 (and .def_113 (and .loc.7 (and .loc.6 .def_268)))))))) .def_308)) (and (and .def_308 (and .def_54 (and .def_126 (and .loc.11 (and .loc.10 (and .loc.9 .def_313)))))) .def_321)) (and (and (and .def_325 .def_327) .def_330) .def_333)) (and (or J1_13 (and (= .x.790 (store D_23 N_23 (store .def_172 (+ (* 4 S_23) B1_23) (select (select D_23 C1_23) (+ M_23 (* 4 S_23)))))) .def_345)) (and (and .def_308 (and .def_54 (and .def_126 (and .def_166 (and .loc.11 (and .loc.10 .def_313)))))) .def_357))) (and (or J1_13 (not .def_136)) (and .def_308 (and .def_50 (and .def_149 (and .def_126 (and .def_133 (and .def_166 (and .def_52 (and .loc.8 (and .loc.5 .def_380))))))))))) (and .def_308 (and .def_149 (and .def_126 (and .def_133 (and .def_166 (and .def_52 (and .def_113 (and .loc.8 (and .loc.6 .def_409)))))))))) (and (and .def_308 (and .def_54 (and .def_50 (and .def_126 (and .def_166 (and .loc.11 (and .loc.10 (and .loc.7 (and .loc.5 (and .def_333 (and .def_163 (and .def_111 (and .def_108 (and .def_105 (and .def_102 (and .def_160 (and .def_99 (and .def_155 (and .def_330 (and .def_203 (and .def_96 (and .def_205 .def_366)))))))))))))))))))))) .def_443)) (and .def_308 (and .def_54 (and .def_50 (and .def_126 (and .def_133 (and .loc.11 (and .loc.9 (and .def_113 (and .loc.7 .def_409)))))))))) (and .def_321 (and .def_308 (and .def_54 (and .def_50 (and .def_126 (and .def_133 (and .loc.11 (and .loc.9 (and .def_113 (and .loc.7 .def_380))))))))))) (and .def_468 .def_470)) (and (or J1_13 (and .def_345 (= .x.790 (store D_23 N_23 (store .def_172 (+ (* 4 S_23) B1_23) (select .def_178 (+ (* 4 S_23) Z_23))))))) (and .def_357 (and .def_308 (and .def_54 (and .def_50 (and .def_126 (and .def_133 (and .def_166 (and .loc.11 (and .def_113 (and .loc.7 (and .def_333 (and .def_163 (and .def_111 (and .def_108 (and .def_105 (and .def_102 (and .def_160 (and .def_99 (and .def_155 (and .def_279 .def_330)))))))))))))))))))))) (and .def_443 (and .def_308 (and .def_54 (and .def_126 (and .def_133 (and .def_166 (and .loc.11 (and .def_52 (and .loc.6 (and .loc.5 (and .def_468 (and .def_333 (and .def_163 (and .def_111 (and .def_108 (and .def_105 (and .def_102 (and .def_160 (and .def_99 (and .def_155 (and .def_330 (and .def_203 (and .def_96 (and .def_205 .def_503))))))))))))))))))))))))) (and .def_308 (and .def_54 (and .def_149 (and .def_126 (and .loc.10 (and .loc.9 (and .def_52 (and .def_113 (and .loc.6 (and .def_468 (and .def_333 (and .def_163 (and .def_111 (and .def_108 (and .def_105 (and .def_102 (and .def_160 (and .def_99 (and .def_155 (and .def_330 (and .def_203 (and .def_96 (and .def_205 (and .def_325 (and .def_395 .def_470)))))))))))))))))))))))))) (and (or J1_13 .def_555) (and .def_308 (and .def_54 (and .def_149 (and .def_126 (and .loc.10 (and .loc.9 (and .def_52 (and .def_113 (and .loc.6 (and .def_468 (and .def_333 (and .def_163 (and .def_111 (and .def_108 (and .def_105 (and .def_102 (and .def_160 (and .def_99 (and .def_155 (and .def_330 (and .def_203 (and .def_96 (and .def_205 (and .def_325 .def_503)))))))))))))))))))))))))) (and (= T_23 .x.806) (and (= Q_23 .x.803) (and (= L_23 .x.798) (= O_23 .x.801))))) (and (or J1_13 (and (= .x.790 (store .def_600 C1_23 (store (select .def_600 C1_23) (+ M_23 (* 4 O_23)) Q_23))) (and (<= (- 2147483648) Q_23) (and (<= (- 2147483648) L_23) (and (not .def_555) (and (<= L_23 2147483647) (<= Q_23 2147483647))))))) (and (or I1_23 (= (+ O_23 (* (- 1) .x.801)) (- 1))) (and .def_308 (and .def_54 (and .def_149 (and .def_126 (and .def_166 (and .loc.10 (and .def_52 (and .def_113 (and .loc.6 (and .def_468 (and .def_333 (and .def_163 (and .def_111 (and .def_108 (and .def_105 (and .def_102 (and .def_160 (and .def_99 (and .def_155 (and .def_330 (and .def_203 (and .def_96 (and .def_205 (and .def_325 (and .def_214 .def_470)))))))))))))))))))))))))))) (and (= J_23 .x.796) (and (= F_23 .x.792) (= H_23 .x.794)))) (and (or J1_13 (and (and (= .x.796 0) (= .x.792 0)) (= J1_0 (store B_23 0 0)))) (and (or I1_23 (and (and (and (and (and (and (and (and (and (and (and (and (and (and (not (<= .x.787 .x.815)) (not (<= .x.787 .x.800))) (not (<= .x.787 .x.808))) (= .x.799 0)) (= .x.801 0)) (= .x.814 0)) (= .x.812 0)) (not (= .x.800 0))) (not (= .x.815 0))) (not (= .x.808 0))) (= (select J1_0 .x.808) 0)) (= (select .def_695 .x.815) 0)) (= (select .def_699 .x.800) 0)) (= .x.794 (store (store (store H_23 .x.808 400000) .x.815 400000) .x.800 400000))) (= .x.788 (store .def_699 .x.800 1)))) (and .def_308 (and .def_54 (and .def_50 (and .def_149 (and .def_126 (and .def_166 (and .loc.10 (and .def_52 (and .loc.5 (and .def_163 (and .def_111 (and .def_157 .def_327)))))))))))))))))))))))))))))))))))))))))))))))))))))))))))))))))))))))))) (state |.x.787| |.x.788| |.x.789| |.x.790| |.x.791| |.x.792| |.x.793| |.x.794| |.x.795| |.x.796| |.x.797| |.x.798| |.x.799| |.x.800| |.x.801| |.x.802| |.x.803| |.x.804| |.x.805| |.x.806| |.x.807| |.x.808| |.x.809| |.x.810| |.x.811| |.x.812| |.x.813| |.x.814| |.x.815| |.x.816| |.x.817| |.x.818| |.x.819| |.x.820| |I1_23| |.loc.9| |.loc.10| |.loc.11| |.loc.12| |.xtv.1|))))
(assert (forall ((|A_23| Int) (|B_23| (Array Int Int)) (|C_23| (Array Int Int)) (|D_23| (Array Int Int)) (|E_23| (Array Int Int)) (|F_23| Int) (|G_23| Int) (|H_23| (Array Int Int)) (|I_23| (Array Int Int)) (|J_23| Int) (|K_23| Int) (|L_23| Int) (|M_23| Int) (|N_23| Int) (|O_23| Int) (|P_23| Int) (|Q_23| Int) (|R_23| Int) (|S_23| Int) (|T_23| Int) (|U_23| Int) (|V_23| Int) (|W_23| Int) (|X_23| Int) (|Y_23| Int) (|Z_23| Int) (|A1_23| Int) (|B1_23| Int) (|C1_23| Int) (|D1_23| Int) (|E1_23| Int) (|F1_23| Int) (|G1_23| Int) (|H1_23| Int) (|J1_13| Bool) (|.loc.5| Bool) (|.loc.6| Bool) (|.loc.7| Bool) (|.loc.8| Bool) (|J1_0| (Array Int Int)) (|.x.797| Int) (|.x.795| (Array Int Int)) (|.x.793| Int) (|.x.791| (Array Int Int)) (|.x.787| Int) (|.x.789| (Array Int Int)) (|.x.788| (Array Int Int)) (|I1_23| Bool) (|.x.799| Int) (|.x.800| Int) (|.x.808| Int) (|.x.812| Int) (|.x.814| Int) (|.x.815| Int) (|.x.816| Int) (|.x.817| Int) (|.loc.11| Bool) (|.loc.10| Bool) (|.x.811| Int) (|.x.802| Int) (|.x.813| Int) (|.x.818| Int) (|.loc.9| Bool) (|.x.809| Int) (|.x.807| Int) (|.loc.12| Bool) (|.x.805| Int) (|.x.790| (Array Int Int)) (|.x.810| Int) (|.x.819| Int) (|.x.820| Int) (|.x.804| Int) (|.x.806| Int) (|.x.803| Int) (|.x.798| Int) (|.x.801| Int) (|.x.796| Int) (|.x.792| Int) (|.x.794| (Array Int Int)) (|.xtv.1| (Array Int Int))) (=> (state |A_23| |B_23| |C_23| |D_23| |E_23| |F_23| |G_23| |H_23| |I_23| |J_23| |K_23| |L_23| |M_23| |N_23| |O_23| |P_23| |Q_23| |R_23| |S_23| |T_23| |U_23| |V_23| |W_23| |X_23| |Y_23| |Z_23| |A1_23| |B1_23| |C1_23| |D1_23| |E1_23| |F1_23| |G1_23| |H1_23| |J1_13| |.loc.5| |.loc.6| |.loc.7| |.loc.8| |J1_0|) (not (and J1_13 (and .loc.8 (and .loc.7 (and (not .loc.6) (not .loc.5)))))))))
(check-sat)
